#SOLVERNAME# PAJ_Gurobi_MOSEK_msd_noscale_subponly_noinit
#SOLVER# Pajarito.PajaritoSolver(3, 3600.0, 1.0e-5, true, Gurobi.GurobiSolver(nothing, Any[(:OutputFlag, 1), (:Threads, 8), (:IntFeasTol, 1.0e-9), (:FeasibilityTol, 1.0e-6), (:MIPGap, 1.0e-5)]), Pajarito.UnsetSolver(), 0, false, true, Mosek.MosekSolver(Any[(:LOG, 0), (:NUM_THREADS, 8), (:MSK_DPAR_INTPNT_CO_TOL_REL_GAP, 1.0e-10), (:MSK_DPAR_INTPNT_CO_TOL_PFEAS, 1.0e-10), (:MSK_DPAR_INTPNT_CO_TOL_DFEAS, 1.0e-10), (:MSK_DPAR_INTPNT_CO_TOL_NEAR_REL, 1000.0)]), true, true, false, false, true, false, false, true, false, false, false, false, false, false, false, 10.0, true, false, false, false, 1.0e-12, 1.0e-6, false, "")
#INSTANCE# ck_n75_m10_o5_5.cbf.gz
#TIMELIMIT# 3600.0

Problem dimensions:
       variables |    1606
     constraints |    1605
   nonzeros in A |    2629

Cones summary:
Cone             | Count   | Min dim.  | Max dim. 
    Rotated S.O. |      10 |        77 |        77

Variable types:
      continuous |    1531
         integer |      75

Transforming data...               0.00s

Creating conic subproblem...       0.03s

Building MIP model...              0.00s

Solving conic relaxation...        0.02s
 - Relaxation status    =        Optimal
 - Relaxation bound     =  -31692.246146
Academic license - for non-commercial use only
Warning for adding constraints: zero or small (< 1e-13) coefficients, ignored
Optimize a model with 1772 rows, 2365 columns and 4104 nonzeros
Variable types: 2290 continuous, 75 integer (0 binary)
Coefficient statistics:
  Matrix range     [2e-13, 5e+02]
  Objective range  [4e+01, 1e+03]
  Bounds range     [0e+00, 0e+00]
  RHS range        [1e+00, 9e+02]
Warning: Model contains large matrix coefficient range
         Consider reformulating model or setting NumericFocus parameter
         to avoid numerical issues.
Found heuristic solution: objective -5578.000000
Presolve removed 1625 rows and 1520 columns
Presolve time: 0.00s
Presolved: 147 rows, 845 columns, 1383 nonzeros
Variable types: 770 continuous, 75 integer (75 binary)

Root relaxation: objective -3.161223e+04, 187 iterations, 0.00 seconds

    Nodes    |    Current Node    |     Objective Bounds      |     Work
 Expl Unexpl |  Obj  Depth IntInf | Incumbent    BestBd   Gap | It/Node Time

     0     0 -31612.225    0   21 -5578.0000 -31612.225   467%     -    0s
H    0     0                    -26472.00000 -31612.225  19.4%     -    0s
H    0     0                    -27725.00000 -31612.225  14.0%     -    0s
     0     0 -31354.072    0   25 -27725.000 -31354.072  13.1%     -    0s
     0     0 -31235.515    0   25 -27725.000 -31235.515  12.7%     -    0s
     0     0 -31228.602    0   26 -27725.000 -31228.602  12.6%     -    0s
     0     0 -31221.754    0   28 -27725.000 -31221.754  12.6%     -    0s
     0     0 -31221.587    0   28 -27725.000 -31221.587  12.6%     -    0s
     0     0 -31221.553    0   27 -27725.000 -31221.553  12.6%     -    0s
     0     0 -30960.003    0   35 -27725.000 -30960.003  11.7%     -    0s
     0     0 -30775.254    0   35 -27725.000 -30775.254  11.0%     -    0s
     0     0 -30732.732    0   34 -27725.000 -30732.732  10.8%     -    0s
     0     0 -30730.179    0   36 -27725.000 -30730.179  10.8%     -    0s
     0     0 -30729.167    0   35 -27725.000 -30729.167  10.8%     -    0s
     0     0 -30729.072    0   35 -27725.000 -30729.072  10.8%     -    0s
     0     0 -30679.612    0   36 -27725.000 -30679.612  10.7%     -    0s
     0     0 -30653.686    0   37 -27725.000 -30653.686  10.6%     -    0s
     0     0 -30647.904    0   35 -27725.000 -30647.904  10.5%     -    0s
     0     0 -30646.442    0   35 -27725.000 -30646.442  10.5%     -    0s
     0     0 -30645.913    0   36 -27725.000 -30645.913  10.5%     -    0s
     0     0 -30555.281    0   34 -27725.000 -30555.281  10.2%     -    0s
H    0     0                    -28096.00000 -30555.281  8.75%     -    0s
     0     0 -30543.593    0   37 -28096.000 -30543.593  8.71%     -    0s
     0     0 -30531.405    0   37 -28096.000 -30531.405  8.67%     -    0s
     0     0 -30530.817    0   36 -28096.000 -30530.817  8.67%     -    0s
     0     0 -30497.096    0   35 -28096.000 -30497.096  8.55%     -    0s
     0     0 -30491.568    0   34 -28096.000 -30491.568  8.53%     -    0s
     0     0 -30489.617    0   34 -28096.000 -30489.617  8.52%     -    0s
     0     0 -30480.817    0   35 -28096.000 -30480.817  8.49%     -    0s
     0     2 -30480.817    0   35 -28096.000 -30480.817  8.49%     -    0s
H   36    37                    -28176.00000 -30339.786  7.68%  43.2    0s
H  148   144                    -28201.00000 -30253.028  7.28%  29.7    0s
H  184   159                    -28255.00000 -30253.028  7.07%  27.1    0s
H  221   200                    -28341.00000 -30253.028  6.75%  25.0    0s
H  365   285                    -28363.00000 -30245.909  6.64%  21.2    0s
H  509   286                    -28921.00000 -30209.262  4.45%  20.2    0s
H  601   328                    -29007.00000 -30124.907  3.85%  20.7    0s
H 1356   601                    -29070.00000 -29947.966  3.02%  21.1    0s

Cutting planes:
  Learned: 1
  Gomory: 3
  Cover: 32
  Implied bound: 35
  MIR: 176
  Inf proof: 5
  Lazy constraints: 213

Explored 7171 nodes (142813 simplex iterations) in 1.83 seconds
Thread count was 8 (of 16 available processors)

Solution count 10: -29070 -29007 -28921 ... -27725

Optimal solution found (tolerance 1.00e-05)
Best objective -2.907000000000e+04, best bound -2.907000000000e+04, gap 0.0000%

Starting MIP-solver-driven algorithm

MIP-solver-driven algorithm summary:
 - Status               =        Optimal
 - Best feasible        =  -2.907000e+04
 - Best bound           =  -2.907000e+04
 - Relative opt. gap    =      0.000e+00
 - Total time (s)       =       1.89e+00

Timers (s):
 - Setup                =   3.24e-02
 -- Transform data      =   8.14e-04
 -- Create conic data   =   2.86e-02
 -- Create MIP data     =   2.93e-03
 - Algorithm            =   1.86e+00
 -- Solve relaxation    =   1.93e-02
 -- Get relaxation cuts =   3.90e-04
 -- MIP solver driving  =   1.84e+00
 -- Solve subproblems   =   9.66e-02
 -- Get subproblem cuts =   2.26e-03
 -- Get separation cuts =   0.00e+00

Counters:
 - Lazy callbacks       =    18
 -- Integer repeats     =     1
 -- Conic subproblems   =    18
 --- Infeasible         =     6
 --- Optimal            =    12
 --- Suboptimal         =     0
 --- UserLimit          =     0
 --- ConicFailure       =     0
 --- Other status       =     0
 -- Feasible solutions  =    12
 --- From subproblems   =    12
 --- In lazy callback   =     0
 - Heuristic callbacks  =  4241
 -- Solutions passed    =    10

Solution returned by conic solver

Rounds of full separation/subproblem cuts, and count of cuts added:
Cone             | Subp.  | Sep.   | Total  | Relax. | Viol. 
    Second order |     70 |      0 |    213 |    147 |    213

24 numerically unstable disaggregated SOC cuts

Distance to feasibility (negative indicates strict feasibility):
Cone             | Variable  | Constraint
          Linear |  0.00e+00 |  2.84e-14
    Rotated S.O. | -9.27e-01 |        NA

Distance to integrality of integer/binary variables:
         integer |  8.88e-16

#STATUS# Optimal
#OBJVAL# 29070.0
#OBJBOUND# 29070.0
#NODECOUNT# 7171
#TIMESOLVER# 1.890852928161621
#TIMEALL# 1.937000036239624
#SOLUTION# [0.0,1.0,1.0,1.0,1.0,1.0,0.9999999999999991,-0.0,-0.0,0.0,0.9999999999999998,0.0,1.0000000000000002,-0.0,0.0,1.0,1.0,1.0,-0.0,-0.0,1.0,1.0,1.0,1.0,1.0,0.0,-0.0,-0.0,1.0,1.0,1.0,1.0,1.0,-0.0,1.0,1.0,-0.0,-0.0,-0.0,-0.0,0.0,1.0,0.0,-0.0,1.0,1.0,1.0,1.0,1.0,1.0,-0.0,1.0,1.0,-0.0,0.0,1.0,1.0,0.0,1.0,0.0,-0.0,1.0,1.0,1.0,1.0,1.0,1.0,1.0,0.9999999999999998,-0.0,-0.0,1.0,1.0,1.0,1.0,0.0,0.0,41.0,12.0,0.0,0.0,0.0,135.9999999999999,0.0,0.0,0.0,0.0,0.0,0.0,0.0,0.0,0.0,0.0,0.0,0.0,0.0,0.0,0.0,0.0,0.0,175.0,0.0,0.0,0.0,0.0,0.0,0.0,0.0,2.0,0.0,0.0,0.0,0.0,0.0,0.0,0.0,0.0,0.0,0.0,0.0,0.0,0.0,0.0,0.0,196.0,0.0,0.0,0.0,4.0,0.0,0.0,0.0,0.0,0.0,0.0,0.0,0.0,7.0,0.0,0.0,0.0,0.0,0.0,313.0,0.0,0.0,0.0,0.0,0.0,0.0,100.0,449.12632574277706,0.0,154.0,103.0,0.0,0.0,0.0,65.99999999999994,0.0,0.0,0.0,0.0,0.0,0.0,0.0,0.0,0.0,0.0,0.0,0.0,0.0,0.0,0.0,0.0,0.0,0.0,0.0,0.0,0.0,0.0,0.0,0.0,0.0,0.0,0.0,0.0,0.0,0.0,0.0,0.0,0.0,0.0,0.0,0.0,0.0,63.0,0.0,0.0,160.0,0.0,0.0,0.0,0.0,0.0,0.0,0.0,0.0,0.0,0.0,0.0,0.0,0.0,0.0,0.0,0.0,0.0,0.0,0.0,0.0,42.99999999999999,0.0,0.0,0.0,0.0,113.0,0.0,289.9351284026705,0.0,0.0,0.0,0.0,0.0,0.0,0.0,0.0,0.0,0.0,0.0,0.0,90.00000000000001,0.0,0.0,0.0,0.0,0.0,0.0,0.0,0.0,107.0,0.0,0.0,0.0,0.0,0.0,0.0,0.0,0.0,0.0,0.0,0.0,0.0,0.0,0.0,0.0,0.0,0.0,0.0,0.0,0.0,0.0,0.0,0.0,0.0,0.0,63.0,0.0,0.0,0.0,0.0,0.0,0.0,0.0,0.0,0.0,0.0,0.0,0.0,0.0,0.0,49.0,166.0,0.0,0.0,0.0,0.0,0.0,0.0,0.0,0.0,0.0,0.0,0.0,238.40690277503612,0.0,0.0,0.0,0.0,0.0,0.0,0.0,0.0,0.0,0.0,0.0,0.0,0.0,0.0,0.0,0.0,0.0,0.0,0.0,0.0,0.0,0.0,0.0,0.0,0.0,0.0,0.0,0.0,0.0,0.0,0.0,0.0,0.0,0.0,0.0,0.0,0.0,0.0,0.0,0.0,0.0,0.0,0.0,0.0,0.0,0.0,0.0,0.0,0.0,44.0,0.0,0.0,0.0,0.0,0.0,155.0,0.0,0.0,0.0,0.0,0.0,0.0,0.0,76.0,0.0,0.0,0.0,2.0,0.0,0.0,0.0,0.0,330.0,43.0,0.0,386.4084701497605,0.0,0.0,0.0,0.0,7.0,0.0,0.0,0.0,0.0,0.0,0.0,0.0,0.0,0.0,0.0,0.0,0.0,0.0,0.0,0.0,77.0,0.0,0.0,0.0,0.0,0.0,0.0,0.0,0.0,0.0,44.0,11.0,0.0,0.0,0.0,0.0,0.0,0.0,0.0,0.0,0.0,0.0,0.0,0.0,0.0,0.0,0.0,28.0,0.0,221.0,0.0,0.0,53.0,0.0,0.0,0.0,0.0,0.0,281.0,0.0,0.0,0.0,0.0,0.0,134.0,0.0,0.0,0.0,0.0,0.0,0.0,0.0,0.0,0.0,0.0,411.00107075914275,0.0,0.0,0.0,0.0,133.0,0.0,0.0,0.0,0.0,0.0,0.0,0.0,0.0,0.0,0.0,47.0,0.0,0.0,0.0,0.0,0.0,0.0,0.0,0.0,0.0,0.0,0.0,0.0,0.0,0.0,0.0,0.0,259.0,0.0,88.0,83.0,0.0,0.0,0.0,0.0,0.0,0.0,0.0,0.0,0.0,12.0,0.0,101.0,0.0,3.0,0.0,74.0,0.0,0.0,0.0,0.0,0.0,0.0,0.0,0.0,0.0,0.0,0.0,0.0,158.0,0.0,0.0,0.0,146.99999999999997,0.0,0.0,0.0,0.0,0.0,0.0,406.7573983223199,0.0,0.0,0.0,0.0,0.0,0.0,0.0,0.0,0.0,0.0,4.999999999999999,0.0,166.00000000000003,0.0,0.0,0.0,60.0,0.0,0.0,0.0,0.0,0.0,0.0,0.0,0.0,0.0,0.0,0.0,0.0,0.0,0.0,0.0,0.0,0.0,0.0,0.0,0.0,0.0,0.0,0.0,0.0,0.0,0.0,0.0,0.0,0.0,0.0,0.0,60.0,0.0,0.0,0.0,0.0,0.0,0.0,0.0,0.0,0.0,0.0,0.0,0.0,0.0,0.0,0.0,0.0,0.0,0.0,0.0,23.999999999999993,0.0,0.0,0.0,0.0,0.0,0.0,231.2651918160963,0.0,0.0,0.0,0.0,2.0,0.0,0.0,0.0,0.0,0.0,0.0,0.0,0.0,0.0,0.0,75.0,0.0,0.0,0.0,0.0,0.0,0.0,0.0,0.0,0.0,0.0,0.0,0.0,0.0,0.0,0.0,0.0,0.0,0.0,0.0,0.0,0.0,0.0,0.0,0.0,0.0,0.0,0.0,0.0,0.0,0.0,0.0,0.0,85.0,0.0,0.0,57.0,0.0,0.0,0.0,0.0,0.0,0.0,87.0,0.0,0.0,0.0,0.0,0.0,0.0,0.0,0.0,0.0,0.0,0.0,0.0,0.0,0.0,0.0,0.0,156.18209260147054,0.0,0.0,0.0,0.0,0.0,0.0,0.0,0.0,0.0,0.0,0.0,0.0,0.0,0.0,0.0,0.0,0.0,1.0,0.0,0.0,0.0,2.0,0.0,0.0,0.0,0.0,0.0,0.0,0.0,0.0,0.0,0.0,0.0,0.0,0.0,0.0,0.0,0.0,0.0,0.0,0.0,0.0,0.0,0.0,0.0,246.0,0.0,17.0,0.0,161.0,0.0,42.0,0.0,0.0,0.0,0.0,6.0,0.0,0.0,0.0,0.0,0.0,0.0,0.0,0.0,0.0,0.0,0.0,0.0,0.0,0.0,0.0,0.0,8.0,0.0,298.3444342910661,0.0,0.0,0.0,0.0,0.0,0.0,0.0,0.0,0.0,0.0,0.0,0.0,0.0,0.0,0.0,0.0,0.0,0.0,0.0,0.0,0.0,0.0,0.0,0.0,0.0,0.0,0.0,0.0,0.0,0.0,0.0,0.0,0.0,0.0,0.0,0.0,0.0,0.0,0.0,0.0,0.0,0.0,0.0,0.0,0.0,0.0,0.0,0.0,0.0,0.0,0.0,0.0,8.0,0.0,0.0,0.0,0.0,0.0,0.0,0.0,0.0,0.0,0.0,0.0,0.0,0.0,0.0,0.0,0.0,0.0,0.0,0.0,0.0,128.0,0.0,129.65943575687513,635.1605410842318,317.58027054211595,0.0,57.98275605729689,16.97056274847714,0.0,0.0,0.0,192.33304448274075,0.0,0.0,0.0,0.0,0.0,0.0,0.0,0.0,0.0,0.0,0.0,0.0,0.0,0.0,0.0,0.0,0.0,247.48737341529161,0.0,0.0,0.0,0.0,0.0,0.0,0.0,2.82842712474619,0.0,0.0,0.0,0.0,0.0,0.0,0.0,0.0,0.0,0.0,0.0,0.0,0.0,0.0,0.0,277.1858582251266,0.0,0.0,0.0,5.65685424949238,0.0,0.0,0.0,0.0,0.0,0.0,0.0,0.0,9.899494936611664,0.0,0.0,0.0,0.0,0.0,442.6488450227787,0.0,0.0,0.0,0.0,0.0,0.0,141.42135623730948,410.03019079544134,205.01509539772073,0.0,217.7888886054566,145.66399692442877,0.0,0.0,0.0,93.33809511662419,0.0,0.0,0.0,0.0,0.0,0.0,0.0,0.0,0.0,0.0,0.0,0.0,0.0,0.0,0.0,0.0,0.0,0.0,0.0,0.0,0.0,0.0,0.0,0.0,0.0,0.0,0.0,0.0,0.0,0.0,0.0,0.0,0.0,0.0,0.0,0.0,0.0,89.09545442950498,0.0,0.0,226.2741699796952,0.0,0.0,0.0,0.0,0.0,0.0,0.0,0.0,0.0,0.0,0.0,0.0,0.0,0.0,0.0,0.0,0.0,0.0,0.0,0.0,60.811183182043074,0.0,0.0,0.0,0.0,159.80613254815972,0.0,337.15827526781993,168.57913763391,0.0,0.0,0.0,0.0,0.0,0.0,0.0,0.0,0.0,0.0,0.0,0.0,127.27922061357856,0.0,0.0,0.0,0.0,0.0,0.0,0.0,0.0,151.32085117392117,0.0,0.0,0.0,0.0,0.0,0.0,0.0,0.0,0.0,0.0,0.0,0.0,0.0,0.0,0.0,0.0,0.0,0.0,0.0,0.0,0.0,0.0,0.0,0.0,0.0,89.09545442950498,0.0,0.0,0.0,0.0,0.0,0.0,0.0,0.0,0.0,0.0,0.0,0.0,0.0,0.0,69.29646455628165,234.75945135393377,0.0,0.0,0.0,0.0,0.0,0.0,0.0,0.0,0.0,0.0,0.0,546.4640991016305,273.2320495508153,0.0,0.0,0.0,0.0,0.0,0.0,0.0,0.0,0.0,0.0,0.0,0.0,0.0,0.0,0.0,0.0,0.0,0.0,0.0,0.0,0.0,0.0,0.0,0.0,0.0,0.0,0.0,0.0,0.0,0.0,0.0,0.0,0.0,0.0,0.0,0.0,0.0,0.0,0.0,0.0,0.0,0.0,0.0,0.0,0.0,0.0,0.0,0.0,0.0,62.22539674441617,0.0,0.0,0.0,0.0,0.0,219.2031021678297,0.0,0.0,0.0,0.0,0.0,0.0,0.0,107.48023074035521,0.0,0.0,0.0,2.82842712474619,0.0,0.0,0.0,0.0,466.6904755831213,60.81118318204308,0.0,581.2432884174438,290.62164420872193,0.0,0.0,0.0,0.0,9.899494936611664,0.0,0.0,0.0,0.0,0.0,0.0,0.0,0.0,0.0,0.0,0.0,0.0,0.0,0.0,0.0,108.8944443027283,0.0,0.0,0.0,0.0,0.0,0.0,0.0,0.0,0.0,62.22539674441617,15.556349186104043,0.0,0.0,0.0,0.0,0.0,0.0,0.0,0.0,0.0,0.0,0.0,0.0,0.0,0.0,0.0,39.597979746446654,0.0,312.541197284454,0.0,0.0,74.95331880577403,0.0,0.0,0.0,0.0,0.0,397.3940110268397,0.0,0.0,0.0,0.0,0.0,189.50461735799473,0.0,0.0,0.0,0.0,0.0,0.0,0.0,0.0,0.0,0.0,575.2418293030199,287.62091465151,0.0,0.0,0.0,0.0,188.09040379562163,0.0,0.0,0.0,0.0,0.0,0.0,0.0,0.0,0.0,0.0,66.46803743153546,0.0,0.0,0.0,0.0,0.0,0.0,0.0,0.0,0.0,0.0,0.0,0.0,0.0,0.0,0.0,0.0,366.28131265463156,0.0,124.45079348883235,117.37972567696688,0.0,0.0,0.0,0.0,0.0,0.0,0.0,0.0,0.0,16.97056274847714,0.0,142.8355697996826,0.0,4.242640687119285,0.0,104.65180361560903,0.0,0.0,0.0,0.0,0.0,0.0,0.0,0.0,0.0,0.0,0.0,0.0,223.445742854949,0.0,0.0,0.0,207.88939366884492,0.0,0.0,0.0,0.0,0.0,0.0,327.05837077113864,163.52918538556935,0.0,0.0,0.0,0.0,0.0,0.0,0.0,0.0,0.0,0.0,7.071067811865474,0.0,234.7594513539338,0.0,0.0,0.0,84.85281374238569,0.0,0.0,0.0,0.0,0.0,0.0,0.0,0.0,0.0,0.0,0.0,0.0,0.0,0.0,0.0,0.0,0.0,0.0,0.0,0.0,0.0,0.0,0.0,0.0,0.0,0.0,0.0,0.0,0.0,0.0,0.0,84.85281374238569,0.0,0.0,0.0,0.0,0.0,0.0,0.0,0.0,0.0,0.0,0.0,0.0,0.0,0.0,0.0,0.0,0.0,0.0,0.0,33.94112549695427,0.0,0.0,0.0,0.0,0.0,0.0,220.87483355681024,110.43741677840515,0.0,0.0,0.0,0.0,2.82842712474619,0.0,0.0,0.0,0.0,0.0,0.0,0.0,0.0,0.0,0.0,106.06601717798212,0.0,0.0,0.0,0.0,0.0,0.0,0.0,0.0,0.0,0.0,0.0,0.0,0.0,0.0,0.0,0.0,0.0,0.0,0.0,0.0,0.0,0.0,0.0,0.0,0.0,0.0,0.0,0.0,0.0,0.0,0.0,0.0,120.20815280171307,0.0,0.0,80.61017305526642,0.0,0.0,0.0,0.0,0.0,0.0,123.03657992645925,0.0,0.0,0.0,0.0,0.0,0.0,0.0,0.0,0.0,0.0,0.0,0.0,0.0,0.0,0.0,0.0,421.9227452329543,210.9613726164772,0.0,0.0,0.0,0.0,0.0,0.0,0.0,0.0,0.0,0.0,0.0,0.0,0.0,0.0,0.0,0.0,0.0,1.414213562373095,0.0,0.0,0.0,2.82842712474619,0.0,0.0,0.0,0.0,0.0,0.0,0.0,0.0,0.0,0.0,0.0,0.0,0.0,0.0,0.0,0.0,0.0,0.0,0.0,0.0,0.0,0.0,0.0,347.89653634378135,0.0,24.041630560342615,0.0,227.6883835420683,0.0,59.39696961966999,0.0,0.0,0.0,0.0,8.48528137423857,0.0,0.0,0.0,0.0,0.0,0.0,0.0,0.0,0.0,0.0,0.0,0.0,0.0,0.0,0.0,0.0,11.31370849898476,0.0,183.36613253701583,91.68306626850793,0.0,0.0,0.0,0.0,0.0,0.0,0.0,0.0,0.0,0.0,0.0,0.0,0.0,0.0,0.0,0.0,0.0,0.0,0.0,0.0,0.0,0.0,0.0,0.0,0.0,0.0,0.0,0.0,0.0,0.0,0.0,0.0,0.0,0.0,0.0,0.0,0.0,0.0,0.0,0.0,0.0,0.0,0.0,0.0,0.0,0.0,0.0,0.0,0.0,0.0,0.0,0.0,11.31370849898476,0.0,0.0,0.0,0.0,0.0,0.0,0.0,0.0,0.0,0.0,0.0,0.0,0.0,0.0,0.0,0.0,0.0,0.0,0.0,0.0,181.01933598375615,0.0]
